
%FILE DATA:	Soccer Computational Problem for MiniZinc Models	%
%AUTHOR:	Jack Wall	%
%CONTACT:  	116397063@umail.ucc.ie			%
%LAST UPDATE:	03/02/2020, 18:19:35						%
%DESCRIPTION: 	88 games played with 22 games left				%


n=11; %number of teams

%Games to play
games=[|10,5|11,6|11,10|3,8|1,6|11,8|8,6|4,2|10,8|3,4|10,1|4,7|10,4|6,4|9,1|6,8|2,4|8,10|9,11|8,2|5,8|3,11|];

%Initial points
iPoints=[13,16,31,23,26,23,30,19,31,13,21];

%POSITION CONSTRAINTS
% [|teamID, operator, position|...]
% operators index:
%  1 for =  operator
%  2 for >  operator
%  3 for >= operator
%  4 for <  operator
%  5 for <= operator
positionConstraints=[|9,5,1|8,3,2|7,5,3|];